1 1 2 0
1 -1 -3 0
1 -4 5 0
1 -4 -6 0
1 -7 -2 0
1 7 -8 0
1 -7 -9 0
1 -7 10 0
1 -11 12 0
1 -11 2 0
1 -11 -8 0
1 -11 9 0
1 11 5 0
1 8 13 0
1 -8 14 0
1 -8 15 0
1 8 1 0
1 -8 6 0
1 -6 16 0
1 6 17 0
1 -6 -13 0
1 -6 -4 0
1 6 18 0
1 6 -14 0
1 -6 -15 0
1 -6 -7 0
1 -2 -17 0
1 -2 19 0
1 2 -11 0
1 2 20 0
1 -2 -18 0
1 -2 1 0
1 -2 -5 0
1 5 21 0
1 -5 18 0
1 5 -7 0
1 5 -1 0
1 -15 -8 0
1 15 -9 0
1 -15 -22 0
1 23 12 0
1 -23 -21 0
1 23 9 0
1 23 -15 0
1 23 -6 0
1 -14 24 0
1 14 13 0
1 -14 25 0
1 14 26 0
1 -14 -27 0
1 -14 28 0
1 14 -29 0
1 13 12 0
1 -13 -25 0
1 13 -19 0
1 13 26 0
1 13 -8 0
1 13 -14 0
1 13 -28 0
1 13 -30 0
1 27 -31 0
1 27 24 0
1 27 -13 0
1 27 -23 0
1 27 -32 0
1 -27 33 0
1 -27 34 0
1 27 -14 0
1 -27 -15 0
1 -27 7 0
1 27 35 0
1 -24 -31 0
1 9 -17 0
1 9 13 0
1 9 -23 0
1 -9 11 0
1 9 -36 0
1 -9 -37 0
1 9 -18 0
1 9 -15 0
1 9 -7 0
1 12 38 0
1 12 -17 0
1 -12 -13 0
1 -12 -23 0
1 -12 11 0
1 -12 -32 0
1 -12 9 0
1 12 -36 0
1 12 18 0
1 -12 -14 0
1 12 15 0
1 12 -7 0
1 33 24 0
1 33 -26 0
1 33 -27 0
1 33 -18 0
1 33 28 0
1 -33 -30 0
1 -39 24 0
1 -39 -17 0
1 -39 -25 0
1 39 -28 0
1 39 30 0
1 -40 24 0
1 40 25 0
1 -40 26 0
1 -40 -36 0
1 -40 30 0
1 31 27 0
1 -31 28 0
1 -31 -30 0
1 30 -31 0
1 -30 -14 0
1 -26 40 0
1 26 33 0
1 28 -39 0
1 28 -25 0
1 28 41 0
1 28 -32 0
1 -28 40 0
1 -28 33 0
1 -28 42 0
1 -28 -35 0
1 -25 31 0
1 -25 13 0
1 -25 41 0
1 25 32 0
1 -25 -40 0
1 -25 33 0
1 25 -14 0
1 25 35 0
1 3 -43 0
1 3 44 0
1 -3 45 0
1 3 -46 0
1 3 1 0
1 -44 46 0
1 -10 -43 0
1 10 -47 0
1 10 48 0
1 10 45 0
1 10 7 0
1 -48 -49 0
1 -48 43 0
1 48 47 0
1 -48 50 0
1 48 -11 0
1 48 51 0
1 -43 -52 0
1 -43 -44 0
1 43 -46 0
1 -43 -22 0
1 -46 -19 0
1 -46 -21 0
1 46 44 0
1 -46 -53 0
1 -46 -29 0
1 -49 54 0
1 49 -44 0
1 -49 -45 0
1 -49 -10 0
1 -49 -3 0
1 45 -49 0
1 45 55 0
1 -45 10 0
1 22 -47 0
1 -22 -2 0
1 -22 -46 0
1 22 56 0
1 22 51 0
1 -22 5 0
1 -21 -23 0
1 -21 -50 0
1 -21 56 0
1 -21 -22 0
1 -29 -47 0
1 -29 50 0
1 -29 57 0
1 29 58 0
1 -29 2 0
1 -29 -14 0
1 29 -59 0
1 19 -46 0
1 -19 29 0
1 19 -60 0
1 50 61 0
1 50 17 0
1 50 -19 0
1 -50 21 0
1 50 -62 0
1 50 -48 0
1 -50 29 0
1 -50 -10 0
1 51 -61 0
1 51 19 0
1 -51 -21 0
1 -51 -50 0
1 51 -48 0
1 -51 63 0
1 51 64 0
1 -51 -10 0
1 47 61 0
1 47 65 0
1 -47 -63 0
1 47 -56 0
1 -56 -61 0
1 -56 19 0
1 56 -47 0
1 56 -21 0
1 -56 29 0
1 -56 -66 0
1 56 -10 0
1 18 12 0
1 18 17 0
1 -18 58 0
1 -18 8 0
1 -18 -9 0
1 -18 33 0
1 18 51 0
1 -18 -59 0
1 -18 -60 0
1 18 -5 0
1 18 6 0
1 17 57 0
1 17 -2 0
1 17 -9 0
1 17 59 0
1 -17 6 0
1 -36 16 0
1 36 12 0
1 -36 67 0
1 36 -9 0
1 -36 59 0
1 -68 16 0
1 -68 -12 0
1 68 -57 0
1 -68 -67 0
1 68 9 0
1 68 -36 0
1 68 -60 0
1 -58 -69 0
1 -58 -41 0
1 -58 70 0
1 58 -60 0
1 -58 -71 0
1 58 72 0
1 60 68 0
1 60 -17 0
1 60 -19 0
1 60 -58 0
1 -60 -41 0
1 -60 -32 0
1 -60 73 0
1 -60 -29 0
1 60 -35 0
1 57 -17 0
1 57 -19 0
1 -57 -74 0
1 57 -69 0
1 -57 75 0
1 57 63 0
1 57 36 0
1 57 -18 0
1 -57 29 0
1 57 59 0
1 -57 -76 0
1 -59 61 0
1 -59 -68 0
1 -59 17 0
1 -59 19 0
1 -59 -75 0
1 59 63 0
1 -59 36 0
1 -59 76 0
1 32 12 0
1 -32 -24 0
1 -32 25 0
1 -32 -58 0
1 32 -20 0
1 -32 67 0
1 32 -27 0
1 -32 -28 0
1 -32 -60 0
1 -32 -35 0
1 35 61 0
1 -35 -12 0
1 35 16 0
1 -35 -24 0
1 -35 -58 0
1 35 -20 0
1 -35 32 0
1 35 67 0
1 -35 -28 0
1 35 -60 0
1 41 -77 0
1 -41 25 0
1 41 58 0
1 41 75 0
1 -41 -67 0
1 -41 37 0
1 41 34 0
1 41 60 0
1 -41 72 0
1 72 16 0
1 72 38 0
1 72 -25 0
1 -72 58 0
1 -72 -41 0
1 -72 34 0
1 -72 -28 0
1 -72 -60 0
1 72 76 0
1 67 68 0
1 67 78 0
1 -67 -79 0
1 67 -41 0
1 67 8 0
1 67 -80 0
1 67 -81 0
1 67 82 0
1 -67 -72 0
1 16 -78 0
1 16 -41 0
1 16 67 0
1 16 6 0
1 -16 80 0
1 16 72 0
1 16 35 0
1 -20 78 0
1 -20 69 0
1 20 41 0
1 -20 32 0
1 20 -83 0
1 20 71 0
1 -20 72 0
1 84 68 0
1 -84 78 0
1 -84 -69 0
1 84 32 0
1 -84 5 0
1 84 83 0
1 -84 35 0
1 -85 38 0
1 -85 69 0
1 -85 -28 0
1 85 30 0
1 -82 -77 0
1 82 26 0
1 -82 -85 0
1 -82 67 0
1 82 -28 0
1 -82 -30 0
1 -79 -16 0
1 -79 -86 0
1 -79 -87 0
1 -79 -67 0
1 79 34 0
1 -81 -38 0
1 -81 77 0
1 81 -79 0
1 -81 37 0
1 81 -88 0
1 81 83 0
1 34 89 0
1 34 -90 0
1 34 -79 0
1 -34 -85 0
1 34 -27 0
1 -34 -91 0
1 -34 -72 0
1 77 89 0
1 77 90 0
1 -77 -79 0
1 -77 -85 0
1 -77 -34 0
1 -77 81 0
1 -37 92 0
1 37 78 0
1 37 41 0
1 37 -80 0
1 37 81 0
1 -37 -82 0
1 -37 72 0
1 -38 -12 0
1 -38 -79 0
1 38 85 0
1 -38 -41 0
1 -38 -37 0
1 38 -80 0
1 -90 77 0
1 90 -86 0
1 90 78 0
1 90 -42 0
1 -90 -34 0
1 90 -91 0
1 -91 -87 0
1 91 -34 0
1 -91 -42 0
1 91 80 0
1 91 -88 0
1 -89 92 0
1 89 -87 0
1 -89 93 0
1 -89 34 0
1 -89 42 0
1 -93 -87 0
1 -93 34 0
1 93 42 0
1 -88 -89 0
1 88 90 0
1 -88 87 0
1 88 93 0
1 88 30 0
1 -88 -81 0
1 -87 89 0
1 -87 26 0
1 87 -79 0
1 87 93 0
1 87 -91 0
1 87 81 0
1 87 88 0
1 -42 -89 0
1 -42 90 0
1 -42 -91 0
1 -42 -81 0
1 -86 -25 0
1 86 90 0
1 -86 79 0
1 86 -42 0
1 -86 -93 0
1 86 91 0
1 63 61 0
1 -63 54 0
1 -63 47 0
1 -63 55 0
1 63 -59 0
1 61 -54 0
1 -61 -47 0
1 61 -57 0
1 -61 63 0
1 61 -53 0
1 61 51 0
1 -75 54 0
1 -75 52 0
1 75 65 0
1 -75 -62 0
1 -75 55 0
1 -75 53 0
1 -75 66 0
1 -75 59 0
1 76 -54 0
1 76 -52 0
1 76 -65 0
1 76 -62 0
1 -76 -55 0
1 -76 53 0
1 76 -64 0
1 -52 -43 0
1 52 -69 0
1 52 63 0
1 52 83 0
1 -53 61 0
1 -53 -94 0
1 -53 69 0
1 53 -63 0
1 -53 -71 0
1 -53 76 0
1 54 -63 0
1 -54 76 0
1 -55 -54 0
1 -55 -75 0
1 -55 -63 0
1 55 76 0
1 69 -52 0
1 69 -65 0
1 -69 62 0
1 69 85 0
1 69 58 0
1 -69 53 0
1 -69 59 0
1 69 -71 0
1 -69 -84 0
1 -71 -52 0
1 -71 -65 0
1 -71 -62 0
1 71 58 0
1 71 -66 0
1 -71 -59 0
1 71 -82 0
1 -94 -52 0
1 94 -65 0
1 94 -79 0
1 -94 -74 0
1 -94 66 0
1 -94 -64 0
1 -94 83 0
1 94 -73 0
1 83 52 0
1 83 94 0
1 -83 -70 0
1 83 -64 0
1 83 -81 0
1 83 -84 0
1 62 -78 0
1 62 -69 0
1 62 -95 0
1 62 -83 0
1 62 -76 0
1 -64 -78 0
1 -64 -69 0
1 64 75 0
1 -64 80 0
1 -64 83 0
1 -64 -71 0
1 -64 -76 0
1 65 47 0
1 -65 -94 0
1 -65 -66 0
1 65 -83 0
1 -65 -71 0
1 65 -76 0
1 -66 94 0
1 -66 -69 0
1 66 -83 0
1 66 76 0
1 -78 -38 0
1 78 -64 0
1 -78 -37 0
1 -78 -80 0
1 78 -73 0
1 78 -84 0
1 -80 -78 0
1 80 -62 0
1 80 -70 0
1 80 -20 0
1 80 -67 0
1 80 96 0
1 -80 84 0
1 92 38 0
1 92 -74 0
1 -92 70 0
1 -92 -37 0
1 92 -95 0
1 95 -38 0
1 95 -92 0
1 -95 62 0
1 -95 -74 0
1 95 -70 0
1 95 93 0
1 -95 -73 0
1 -70 94 0
1 -70 -58 0
1 -70 80 0
1 -70 -83 0
1 -73 78 0
1 -73 94 0
1 73 70 0
1 73 -80 0
1 74 96 0
1 -74 80 0
1 96 -92 0
1 96 -78 0
1 -96 -74 0
